inputs/inputs_generici/input_15_3.lp
edificio( 1 , 1 , 1 ).
edificio( 1 , 2 , 0 ).
edificio( 1 , 3 , 1 ).
edificio( 1 , 4 , 0 ).
edificio( 1 , 5 , 1 ).
edificio( 1 , 6 , 0 ).
edificio( 1 , 7 , 1 ).
edificio( 1 , 8 , 0 ).
edificio( 1 , 9 , 1 ).
edificio( 1 , 10 , 0 ).
edificio( 1 , 11 , 1 ).
edificio( 1 , 12 , 1 ).
edificio( 1 , 13 , 1 ).
edificio( 1 , 14 , 1 ).
edificio( 1 , 15 , 1 ).
edificio( 2 , 1 , 0 ).
edificio( 2 , 2 , 1 ).
edificio( 2 , 3 , 0 ).
edificio( 2 , 4 , 0 ).
edificio( 2 , 5 , 1 ).
edificio( 2 , 6 , 0 ).
edificio( 2 , 7 , 0 ).
edificio( 2 , 8 , 0 ).
edificio( 2 , 9 , 1 ).
edificio( 2 , 10 , 1 ).
edificio( 2 , 11 , 1 ).
edificio( 2 , 12 , 1 ).
edificio( 2 , 13 , 0 ).
edificio( 2 , 14 , 1 ).
edificio( 2 , 15 , 1 ).
edificio( 3 , 1 , 1 ).
edificio( 3 , 2 , 1 ).
edificio( 3 , 3 , 1 ).
edificio( 3 , 4 , 0 ).
edificio( 3 , 5 , 0 ).
edificio( 3 , 6 , 1 ).
edificio( 3 , 7 , 0 ).
edificio( 3 , 8 , 0 ).
edificio( 3 , 9 , 0 ).
edificio( 3 , 10 , 1 ).
edificio( 3 , 11 , 0 ).
edificio( 3 , 12 , 1 ).
edificio( 3 , 13 , 1 ).
edificio( 3 , 14 , 0 ).
edificio( 3 , 15 , 1 ).
edificio( 4 , 1 , 0 ).
edificio( 4 , 2 , 1 ).
edificio( 4 , 3 , 1 ).
edificio( 4 , 4 , 0 ).
edificio( 4 , 5 , 0 ).
edificio( 4 , 6 , 1 ).
edificio( 4 , 7 , 0 ).
edificio( 4 , 8 , 0 ).
edificio( 4 , 9 , 0 ).
edificio( 4 , 10 , 0 ).
edificio( 4 , 11 , 1 ).
edificio( 4 , 12 , 1 ).
edificio( 4 , 13 , 1 ).
edificio( 4 , 14 , 0 ).
edificio( 4 , 15 , 1 ).
edificio( 5 , 1 , 0 ).
edificio( 5 , 2 , 1 ).
edificio( 5 , 3 , 0 ).
edificio( 5 , 4 , 0 ).
edificio( 5 , 5 , 1 ).
edificio( 5 , 6 , 1 ).
edificio( 5 , 7 , 0 ).
edificio( 5 , 8 , 0 ).
edificio( 5 , 9 , 1 ).
edificio( 5 , 10 , 0 ).
edificio( 5 , 11 , 1 ).
edificio( 5 , 12 , 0 ).
edificio( 5 , 13 , 1 ).
edificio( 5 , 14 , 1 ).
edificio( 5 , 15 , 1 ).
edificio( 6 , 1 , 0 ).
edificio( 6 , 2 , 1 ).
edificio( 6 , 3 , 1 ).
edificio( 6 , 4 , 1 ).
edificio( 6 , 5 , 0 ).
edificio( 6 , 6 , 1 ).
edificio( 6 , 7 , 1 ).
edificio( 6 , 8 , 1 ).
edificio( 6 , 9 , 1 ).
edificio( 6 , 10 , 1 ).
edificio( 6 , 11 , 1 ).
edificio( 6 , 12 , 0 ).
edificio( 6 , 13 , 1 ).
edificio( 6 , 14 , 0 ).
edificio( 6 , 15 , 1 ).
edificio( 7 , 1 , 0 ).
edificio( 7 , 2 , 1 ).
edificio( 7 , 3 , 0 ).
edificio( 7 , 4 , 1 ).
edificio( 7 , 5 , 0 ).
edificio( 7 , 6 , 0 ).
edificio( 7 , 7 , 0 ).
edificio( 7 , 8 , 0 ).
edificio( 7 , 9 , 0 ).
edificio( 7 , 10 , 1 ).
edificio( 7 , 11 , 0 ).
edificio( 7 , 12 , 1 ).
edificio( 7 , 13 , 1 ).
edificio( 7 , 14 , 1 ).
edificio( 7 , 15 , 1 ).
edificio( 8 , 1 , 1 ).
edificio( 8 , 2 , 0 ).
edificio( 8 , 3 , 1 ).
edificio( 8 , 4 , 0 ).
edificio( 8 , 5 , 0 ).
edificio( 8 , 6 , 0 ).
edificio( 8 , 7 , 1 ).
edificio( 8 , 8 , 0 ).
edificio( 8 , 9 , 0 ).
edificio( 8 , 10 , 0 ).
edificio( 8 , 11 , 1 ).
edificio( 8 , 12 , 1 ).
edificio( 8 , 13 , 1 ).
edificio( 8 , 14 , 0 ).
edificio( 8 , 15 , 1 ).
edificio( 9 , 1 , 1 ).
edificio( 9 , 2 , 0 ).
edificio( 9 , 3 , 0 ).
edificio( 9 , 4 , 1 ).
edificio( 9 , 5 , 0 ).
edificio( 9 , 6 , 0 ).
edificio( 9 , 7 , 0 ).
edificio( 9 , 8 , 1 ).
edificio( 9 , 9 , 0 ).
edificio( 9 , 10 , 1 ).
edificio( 9 , 11 , 0 ).
edificio( 9 , 12 , 0 ).
edificio( 9 , 13 , 1 ).
edificio( 9 , 14 , 0 ).
edificio( 9 , 15 , 0 ).
edificio( 10 , 1 , 0 ).
edificio( 10 , 2 , 0 ).
edificio( 10 , 3 , 0 ).
edificio( 10 , 4 , 1 ).
edificio( 10 , 5 , 1 ).
edificio( 10 , 6 , 0 ).
edificio( 10 , 7 , 0 ).
edificio( 10 , 8 , 0 ).
edificio( 10 , 9 , 1 ).
edificio( 10 , 10 , 3 ).
edificio( 10 , 11 , 1 ).
edificio( 10 , 12 , 0 ).
edificio( 10 , 13 , 1 ).
edificio( 10 , 14 , 1 ).
edificio( 10 , 15 , 0 ).
edificio( 11 , 1 , 0 ).
edificio( 11 , 2 , 0 ).
edificio( 11 , 3 , 1 ).
edificio( 11 , 4 , 1 ).
edificio( 11 , 5 , 1 ).
edificio( 11 , 6 , 1 ).
edificio( 11 , 7 , 0 ).
edificio( 11 , 8 , 0 ).
edificio( 11 , 9 , 0 ).
edificio( 11 , 10 , 0 ).
edificio( 11 , 11 , 0 ).
edificio( 11 , 12 , 0 ).
edificio( 11 , 13 , 1 ).
edificio( 11 , 14 , 0 ).
edificio( 11 , 15 , 1 ).
edificio( 12 , 1 , 1 ).
edificio( 12 , 2 , 1 ).
edificio( 12 , 3 , 0 ).
edificio( 12 , 4 , 0 ).
edificio( 12 , 5 , 0 ).
edificio( 12 , 6 , 1 ).
edificio( 12 , 7 , 1 ).
edificio( 12 , 8 , 1 ).
edificio( 12 , 9 , 1 ).
edificio( 12 , 10 , 0 ).
edificio( 12 , 11 , 0 ).
edificio( 12 , 12 , 0 ).
edificio( 12 , 13 , 0 ).
edificio( 12 , 14 , 1 ).
edificio( 12 , 15 , 0 ).
edificio( 13 , 1 , 0 ).
edificio( 13 , 2 , 0 ).
edificio( 13 , 3 , 1 ).
edificio( 13 , 4 , 1 ).
edificio( 13 , 5 , 0 ).
edificio( 13 , 6 , 0 ).
edificio( 13 , 7 , 0 ).
edificio( 13 , 8 , 0 ).
edificio( 13 , 9 , 2 ).
edificio( 13 , 10 , 1 ).
edificio( 13 , 11 , 0 ).
edificio( 13 , 12 , 0 ).
edificio( 13 , 13 , 1 ).
edificio( 13 , 14 , 0 ).
edificio( 13 , 15 , 1 ).
edificio( 14 , 1 , 1 ).
edificio( 14 , 2 , 0 ).
edificio( 14 , 3 , 1 ).
edificio( 14 , 4 , 0 ).
edificio( 14 , 5 , 0 ).
edificio( 14 , 6 , 0 ).
edificio( 14 , 7 , 0 ).
edificio( 14 , 8 , 0 ).
edificio( 14 , 9 , 0 ).
edificio( 14 , 10 , 0 ).
edificio( 14 , 11 , 0 ).
edificio( 14 , 12 , 0 ).
edificio( 14 , 13 , 0 ).
edificio( 14 , 14 , 1 ).
edificio( 14 , 15 , 0 ).
edificio( 15 , 1 , 1 ).
edificio( 15 , 2 , 1 ).
edificio( 15 , 3 , 1 ).
edificio( 15 , 4 , 1 ).
edificio( 15 , 5 , 0 ).
edificio( 15 , 6 , 1 ).
edificio( 15 , 7 , 0 ).
edificio( 15 , 8 , 0 ).
edificio( 15 , 9 , 0 ).
edificio( 15 , 10 , 1 ).
edificio( 15 , 11 , 1 ).
edificio( 15 , 12 , 1 ).
edificio( 15 , 13 , 0 ).
edificio( 15 , 14 , 1 ).
edificio( 15 , 15 , 1 ).
